(set-logic HORN)
(set-info :source |
    Benchmark: C_VC
    Output by Princess (http://www.philipp.ruemmer.org/princess.shtml)
|)
(set-info :status unknown)
(declare-fun inv_main17 (Int Int Int Int) Bool)
(declare-fun inv_main18 (Int Int Int Int) Bool)
(declare-fun inv_main3 (Int Int Int Int) Bool)
(assert (forall ((var0 Int)) (forall ((var1 Int)) (forall ((var2 Int)) (forall ((var3 Int)) (inv_main3 var3 var0 var2 var1 ) ) ) ) ) )
(assert (forall ((var0 Int)) (forall ((var1 Int)) (forall ((var2 Int)) (forall ((var3 Int)) (or (not (and (inv_main17 var1 var2 var0 var3 ) (<= 0 (+ (+ var0 (* (- 1) var1 ) ) (- 1) ) ) ) ) (inv_main18 var1 var2 var0 var3 ) ) ) ) ) ) )
(assert (forall ((var0 Int)) (forall ((var1 Int)) (forall ((var2 Int)) (forall ((var3 Int)) (or (not (inv_main18 var1 var2 var0 var3 ) ) (inv_main17 (+ var1 1 ) var2 var0 var3 ) ) ) ) ) ) )
(assert (forall ((var0 Int)) (forall ((var1 Int)) (forall ((var2 Int)) (forall ((var3 Int)) (forall ((var4 Int)) (forall ((var5 Int)) (or (not (and (inv_main3 var2 var3 var1 var5 ) (and (<= 0 (+ (+ var4 (- 1) ) (- 1) ) ) (and (<= 0 (+ (+ 1000000 (* (- 1) var4 ) ) (- 1) ) ) (and (<= 0 (+ (+ 1000000 (* (- 1) var0 ) ) (- 1) ) ) (<= 0 (+ var0 (- 1) ) ) ) ) ) ) ) (inv_main17 var0 1 var4 var0 ) ) ) ) ) ) ) ) )
(assert (forall ((var0 Int)) (forall ((var1 Int)) (forall ((var2 Int)) (forall ((var3 Int)) (forall ((var4 Int)) (or (not (and (inv_main17 var2 var3 var1 var4 ) (and (<= 0 (+ (+ var1 (* (- 1) (+ var3 1 ) ) ) (- 1) ) ) (and (not (= var0 0 ) ) (not (<= 0 (+ (+ var1 (* (- 1) var2 ) ) (- 1) ) ) ) ) ) ) ) (inv_main17 (+ var4 1 ) (+ var3 1 ) var1 (+ var4 1 ) ) ) ) ) ) ) ) )
(assert (forall ((var0 Int)) (forall ((var1 Int)) (forall ((var2 Int)) (forall ((var3 Int)) (forall ((var4 Int)) (or (not (and (inv_main17 var2 var3 var1 var4 ) (and (<= 0 (+ (+ var1 (* (- 1) (+ var3 1 ) ) ) (- 1) ) ) (and (= var0 0 ) (not (<= 0 (+ (+ var1 (* (- 1) var2 ) ) (- 1) ) ) ) ) ) ) ) (inv_main17 var4 (+ var3 1 ) var1 var4 ) ) ) ) ) ) ) )
(assert (forall ((var0 Int)) (forall ((var1 Int)) (forall ((var2 Int)) (forall ((var3 Int)) (not (and (inv_main18 var1 var2 var0 var3 ) (not (<= 0 (+ var1 (- 1) ) ) ) ) ) ) ) ) ) )
(check-sat)
